p min 49 520
n 14 -769119.0
n 15 12506.0
n 16 12506.0
n 18 31265.0
n 19 31265.0
n 20 31265.0
n 21 31265.0
n 23 12506.0
n 24 12506.0
n 26 18759.0
n 27 18759.0
n 28 18759.0
n 29 18759.0
n 30 18759.0
n 31 18759.0
n 33 25012.0
n 34 25012.0
n 36 50024.0
n 37 50024.0
n 38 56277.0
n 39 50024.0
n 41 37518.0
n 42 56277.0
n 43 37518.0
n 44 12506.0
n 45 56277.0
n 46 12506.0
n 47 12506.0
a 0 1 0 514901.0 4960.0
a 0 1 0 514901.0 4405.0
a 0 2 0 514901.0 4273.0
a 0 3 0 514901.0 4379.0
a 0 4 0 769119.0 1081.0
a 0 4 0 0.0 0.0
a 0 8 0 514901.0 101357.0
a 0 42 0 514901.0 96211.0
a 0 42 0 0.0 0.0
a 0 1 0 0.0 0.0
a 0 1 0 0.0 0.0
a 0 2 0 514901.0 4328.0
a 0 2 0 0.0 0.0
a 0 2 0 0.0 0.0
a 0 3 0 514901.0 5000.0
a 0 3 0 0.0 0.0
a 0 3 0 0.0 0.0
a 0 4 0 769119.0 1084.0
a 0 4 0 0.0 0.0
a 0 8 0 0.0 0.0
a 0 8 0 0.0 0.0
a 0 8 0 514901.0 93302.0
a 0 42 0 514901.0 95362.0
a 0 42 0 0.0 0.0
a 1 2 0 514901.0 4340.0
a 1 0 0 0.0 0.0
a 1 0 0 0.0 0.0
a 1 0 0 514901.0 4405.0
a 1 0 0 514901.0 4960.0
a 1 2 0 514901.0 4433.0
a 1 3 0 514901.0 4306.0
a 1 4 0 769119.0 1146.0
a 1 20 0 514901.0 243029.0
a 1 39 0 514901.0 199363.0
a 1 2 0 0.0 0.0
a 1 2 0 0.0 0.0
a 1 3 0 514901.0 4629.0
a 1 3 0 0.0 0.0
a 1 3 0 0.0 0.0
a 1 4 0 769119.0 1141.0
a 1 4 0 0.0 0.0
a 1 4 0 0.0 0.0
a 1 20 0 514901.0 246579.0
a 1 20 0 0.0 0.0
a 1 20 0 0.0 0.0
a 1 39 0 514901.0 201348.0
a 1 39 0 0.0 0.0
a 1 39 0 0.0 0.0
a 2 3 0 514901.0 3471.0
a 2 1 0 0.0 0.0
a 2 0 0 0.0 0.0
a 2 1 0 0.0 0.0
a 2 0 0 0.0 0.0
a 2 0 0 514901.0 4328.0
a 2 0 0 514901.0 4273.0
a 2 1 0 514901.0 4433.0
a 2 1 0 514901.0 4340.0
a 2 3 0 514901.0 3285.0
a 2 4 0 769119.0 1066.0
a 2 16 0 514901.0 89475.0
a 2 32 0 514901.0 160993.0
a 2 3 0 0.0 0.0
a 2 3 0 0.0 0.0
a 2 4 0 769119.0 1063.0
a 2 4 0 0.0 0.0
a 2 4 0 0.0 0.0
a 2 16 0 0.0 0.0
a 2 16 0 0.0 0.0
a 2 16 0 514901.0 91909.0
a 2 32 0 514901.0 157381.0
a 2 32 0 0.0 0.0
a 2 32 0 0.0 0.0
a 3 27 0 514901.0 157025.0
a 3 2 0 0.0 0.0
a 3 0 0 0.0 0.0
a 3 1 0 0.0 0.0
a 3 2 0 0.0 0.0
a 3 0 0 0.0 0.0
a 3 0 0 514901.0 5000.0
a 3 0 0 514901.0 4379.0
a 3 1 0 0.0 0.0
a 3 1 0 514901.0 4629.0
a 3 1 0 514901.0 4306.0
a 3 2 0 514901.0 3285.0
a 3 2 0 514901.0 3471.0
a 3 4 0 769119.0 1073.0
a 3 14 0 514901.0 93328.0
a 3 27 0 514901.0 157403.0
a 3 4 0 769119.0 1065.0
a 3 4 0 0.0 0.0
a 3 4 0 0.0 0.0
a 3 14 0 514901.0 90034.0
a 3 14 0 0.0 0.0
a 3 14 0 0.0 0.0
a 3 27 0 0.0 0.0
a 3 27 0 0.0 0.0
a 4 0 0 0.0 0.0
a 4 0 0 769119.0 1084.0
a 4 1 0 0.0 0.0
a 4 2 0 0.0 0.0
a 4 3 0 0.0 0.0
a 4 0 0 0.0 0.0
a 4 0 0 769119.0 1081.0
a 4 1 0 0.0 0.0
a 4 1 0 769119.0 1141.0
a 4 1 0 769119.0 1146.0
a 4 2 0 0.0 0.0
a 4 2 0 769119.0 1063.0
a 4 2 0 769119.0 1066.0
a 4 3 0 0.0 0.0
a 4 3 0 769119.0 1065.0
a 4 3 0 769119.0 1073.0
a 5 6 0 769119.0 4056.0
a 5 6 0 769119.0 3917.0
a 5 7 0 769119.0 988.0
a 5 7 0 0.0 0.0
a 5 10 0 514901.0 194650.0
a 5 20 0 514901.0 34652.0
a 5 6 0 0.0 0.0
a 5 6 0 0.0 0.0
a 5 7 0 769119.0 992.0
a 5 7 0 0.0 0.0
a 5 10 0 621202.0 207609.0
a 5 10 0 212602.0 0.0
a 5 10 0 318903.0 0.0
a 5 20 0 514901.0 28912.0
a 5 20 0 0.0 0.0
a 5 20 0 0.0 0.0
a 6 29 0 514901.0 76085.0
a 6 5 0 0.0 0.0
a 6 5 0 0.0 0.0
a 6 5 0 769119.0 3917.0
a 6 5 0 769119.0 4056.0
a 6 7 0 769119.0 1032.0
a 6 29 0 514901.0 73000.0
a 6 37 0 514901.0 48881.0
a 6 7 0 769119.0 1031.0
a 6 7 0 0.0 0.0
a 6 7 0 0.0 0.0
a 6 29 0 0.0 0.0
a 6 29 0 0.0 0.0
a 6 37 0 514901.0 51727.0
a 6 37 0 0.0 0.0
a 6 37 0 0.0 0.0
a 7 5 0 0.0 0.0
a 7 5 0 769119.0 992.0
a 7 6 0 0.0 0.0
a 7 5 0 0.0 0.0
a 7 5 0 769119.0 988.0
a 7 6 0 0.0 0.0
a 7 6 0 769119.0 1031.0
a 7 6 0 769119.0 1032.0
a 8 9 0 514901.0 4595.0
a 8 0 0 0.0 0.0
a 8 0 0 514901.0 93302.0
a 8 0 0 514901.0 101357.0
a 8 0 0 0.0 0.0
a 8 9 0 514901.0 4512.0
a 8 10 0 514901.0 4831.0
a 8 11 0 514901.0 5150.0
a 8 12 0 769119.0 1175.0
a 8 12 0 0.0 0.0
a 8 25 0 514901.0 305259.0
a 8 9 0 0.0 0.0
a 8 9 0 0.0 0.0
a 8 10 0 514901.0 4795.0
a 8 10 0 0.0 0.0
a 8 10 0 0.0 0.0
a 8 11 0 514901.0 5276.0
a 8 11 0 0.0 0.0
a 8 11 0 0.0 0.0
a 8 12 0 769119.0 1160.0
a 8 12 0 0.0 0.0
a 8 25 0 514901.0 319541.0
a 8 25 0 0.0 0.0
a 8 25 0 0.0 0.0
a 9 10 0 514901.0 5214.0
a 9 8 0 0.0 0.0
a 9 8 0 0.0 0.0
a 9 8 0 514901.0 4512.0
a 9 8 0 514901.0 4595.0
a 9 10 0 514901.0 5617.0
a 9 11 0 514901.0 5736.0
a 9 12 0 769119.0 1220.0
a 9 14 0 514901.0 80961.0
a 9 17 0 514901.0 111991.0
a 9 35 0 514901.0 140758.0
a 9 10 0 0.0 0.0
a 9 10 0 0.0 0.0
a 9 11 0 514901.0 5317.0
a 9 11 0 0.0 0.0
a 9 11 0 0.0 0.0
a 9 12 0 769119.0 1228.0
a 9 12 0 0.0 0.0
a 9 12 0 0.0 0.0
a 9 14 0 514901.0 76020.0
a 9 14 0 0.0 0.0
a 9 14 0 0.0 0.0
a 9 17 0 514901.0 100174.0
a 9 17 0 0.0 0.0
a 9 17 0 0.0 0.0
a 9 35 0 514901.0 144056.0
a 9 35 0 0.0 0.0
a 9 35 0 0.0 0.0
a 10 28 0 514901.0 147624.0
a 10 9 0 0.0 0.0
a 10 5 0 0.0 0.0
a 10 8 0 0.0 0.0
a 10 9 0 0.0 0.0
a 10 5 0 -106301.0 0.0
a 10 5 0 302299.0 207609.0
a 10 5 0 195998.0 194650.0
a 10 8 0 0.0 0.0
a 10 8 0 514901.0 4795.0
a 10 8 0 514901.0 4831.0
a 10 9 0 514901.0 5617.0
a 10 9 0 514901.0 5214.0
a 10 11 0 514901.0 4123.0
a 10 12 0 769119.0 1214.0
a 10 28 0 514901.0 158839.0
a 10 11 0 514901.0 3942.0
a 10 11 0 0.0 0.0
a 10 11 0 0.0 0.0
a 10 12 0 769119.0 1209.0
a 10 12 0 0.0 0.0
a 10 12 0 0.0 0.0
a 10 28 0 0.0 0.0
a 10 28 0 0.0 0.0
a 11 21 0 514901.0 278927.0
a 11 8 0 0.0 0.0
a 11 9 0 0.0 0.0
a 11 10 0 0.0 0.0
a 11 8 0 0.0 0.0
a 11 8 0 514901.0 5276.0
a 11 8 0 514901.0 5150.0
a 11 9 0 0.0 0.0
a 11 9 0 514901.0 5317.0
a 11 9 0 514901.0 5736.0
a 11 10 0 0.0 0.0
a 11 10 0 514901.0 3942.0
a 11 10 0 514901.0 4123.0
a 11 12 0 769119.0 1387.0
a 11 21 0 514901.0 271776.0
a 11 31 0 514901.0 144961.0
a 11 38 0 127215.0 145309.0
a 11 12 0 962962.0 1432.0
a 11 12 0 387686.0 0.0
a 11 12 0 581529.0 0.0
a 11 21 0 0.0 0.0
a 11 21 0 0.0 0.0
a 11 31 0 514901.0 146242.0
a 11 31 0 0.0 0.0
a 11 31 0 0.0 0.0
a 11 38 0 321058.0 155006.0
a 11 38 0 0.0 0.0
a 11 38 0 -581529.0 0.0
a 12 8 0 0.0 0.0
a 12 8 0 769119.0 1160.0
a 12 9 0 0.0 0.0
a 12 10 0 0.0 0.0
a 12 11 0 0.0 0.0
a 12 8 0 0.0 0.0
a 12 8 0 769119.0 1175.0
a 12 9 0 0.0 0.0
a 12 9 0 769119.0 1228.0
a 12 9 0 769119.0 1220.0
a 12 10 0 0.0 0.0
a 12 10 0 769119.0 1209.0
a 12 10 0 769119.0 1214.0
a 12 11 0 -193843.0 0.0
a 12 11 0 381433.0 1432.0
a 12 11 0 187590.0 1387.0
a 13 14 0 769119.0 4285.0
a 13 14 0 769119.0 4573.0
a 13 15 0 769119.0 1083.0
a 13 31 0 514901.0 209814.0
a 13 35 0 514901.0 78389.0
a 13 38 0 514901.0 296357.0
a 13 14 0 0.0 0.0
a 13 14 0 0.0 0.0
a 13 15 0 769119.0 1077.0
a 13 15 0 0.0 0.0
a 13 15 0 0.0 0.0
a 13 31 0 514901.0 218568.0
a 13 31 0 0.0 0.0
a 13 31 0 0.0 0.0
a 13 35 0 514901.0 78712.0
a 13 35 0 0.0 0.0
a 13 35 0 0.0 0.0
a 13 38 0 514901.0 276707.0
a 13 38 0 0.0 0.0
a 13 38 0 0.0 0.0
a 14 15 0 769119.0 1054.0
a 14 13 0 0.0 0.0
a 14 3 0 0.0 0.0
a 14 9 0 0.0 0.0
a 14 13 0 0.0 0.0
a 14 3 0 0.0 0.0
a 14 3 0 514901.0 90034.0
a 14 3 0 514901.0 93328.0
a 14 9 0 0.0 0.0
a 14 9 0 514901.0 76020.0
a 14 9 0 514901.0 80961.0
a 14 13 0 769119.0 4573.0
a 14 13 0 769119.0 4285.0
a 14 15 0 769119.0 1055.0
a 14 42 0 514901.0 54125.0
a 14 47 0 514901.0 161765.0
a 14 15 0 0.0 0.0
a 14 15 0 0.0 0.0
a 14 42 0 514901.0 55791.0
a 14 42 0 0.0 0.0
a 14 42 0 0.0 0.0
a 14 47 0 514901.0 171772.0
a 14 47 0 0.0 0.0
a 14 47 0 0.0 0.0
a 15 14 0 0.0 0.0
a 15 13 0 0.0 0.0
a 15 14 0 0.0 0.0
a 15 13 0 0.0 0.0
a 15 13 0 769119.0 1077.0
a 15 13 0 769119.0 1083.0
a 15 14 0 769119.0 1055.0
a 15 14 0 769119.0 1054.0
a 16 17 0 769119.0 3625.0
a 16 2 0 0.0 0.0
a 16 2 0 514901.0 91909.0
a 16 2 0 514901.0 89475.0
a 16 2 0 0.0 0.0
a 16 17 0 769119.0 4479.0
a 16 18 0 769119.0 1199.0
a 16 18 0 0.0 0.0
a 16 39 0 514901.0 241771.0
a 16 17 0 0.0 0.0
a 16 17 0 0.0 0.0
a 16 18 0 781625.0 1137.0
a 16 18 0 37518.0 0.0
a 16 39 0 514901.0 244419.0
a 16 39 0 0.0 0.0
a 16 39 0 0.0 0.0
a 17 45 0 514901.0 105285.0
a 17 16 0 0.0 0.0
a 17 9 0 0.0 0.0
a 17 16 0 0.0 0.0
a 17 9 0 0.0 0.0
a 17 9 0 514901.0 100174.0
a 17 9 0 514901.0 111991.0
a 17 16 0 769119.0 4479.0
a 17 16 0 769119.0 3625.0
a 17 18 0 681577.0 1115.0
a 17 34 0 514901.0 56529.0
a 17 45 0 514901.0 90938.0
a 17 18 0 725348.0 1074.0
a 17 18 0 0.0 0.0
a 17 18 0 -131313.0 0.0
a 17 34 0 0.0 0.0
a 17 34 0 0.0 0.0
a 17 34 0 514901.0 68012.0
a 17 45 0 0.0 0.0
a 17 45 0 0.0 0.0
a 18 16 0 0.0 0.0
a 18 16 0 769119.0 1137.0
a 18 17 0 87542.0 0.0
a 18 16 0 -12506.0 0.0
a 18 16 0 731601.0 1199.0
a 18 17 0 43771.0 0.0
a 18 17 0 769119.0 1074.0
a 18 17 0 900432.0 1115.0
a 19 20 0 514901.0 3457.0
a 19 20 0 514901.0 4075.0
a 19 21 0 514901.0 3548.0
a 19 22 0 514901.0 2947.0
a 19 23 0 769119.0 949.0
a 19 23 0 0.0 0.0
a 19 40 0 514901.0 91760.0
a 19 20 0 0.0 0.0
a 19 20 0 0.0 0.0
a 19 21 0 514901.0 3630.0
a 19 21 0 0.0 0.0
a 19 21 0 0.0 0.0
a 19 22 0 514901.0 3113.0
a 19 22 0 0.0 0.0
a 19 22 0 0.0 0.0
a 19 23 0 800384.0 949.0
a 19 23 0 93795.0 0.0
a 19 40 0 514901.0 93176.0
a 19 40 0 0.0 0.0
a 19 40 0 0.0 0.0
a 20 19 0 0.0 0.0
a 20 1 0 0.0 0.0
a 20 5 0 0.0 0.0
a 20 19 0 0.0 0.0
a 20 1 0 0.0 0.0
a 20 1 0 514901.0 246579.0
a 20 1 0 514901.0 243029.0
a 20 5 0 0.0 0.0
a 20 5 0 514901.0 28912.0
a 20 5 0 514901.0 34652.0
a 20 19 0 514901.0 4075.0
a 20 19 0 514901.0 3457.0
a 20 21 0 514901.0 4117.0
a 20 22 0 514901.0 4096.0
a 20 23 0 769119.0 964.0
a 20 21 0 514901.0 3667.0
a 20 21 0 0.0 0.0
a 20 21 0 0.0 0.0
a 20 22 0 514901.0 3889.0
a 20 22 0 0.0 0.0
a 20 22 0 0.0 0.0
a 20 23 0 769119.0 965.0
a 20 23 0 0.0 0.0
a 20 23 0 0.0 0.0
a 21 22 0 514901.0 3720.0
a 21 11 0 0.0 0.0
a 21 11 0 0.0 0.0
a 21 19 0 0.0 0.0
a 21 20 0 0.0 0.0
a 21 11 0 514901.0 271776.0
a 21 11 0 514901.0 278927.0
a 21 19 0 0.0 0.0
a 21 19 0 514901.0 3630.0
a 21 19 0 514901.0 3548.0
a 21 20 0 0.0 0.0
a 21 20 0 514901.0 3667.0
a 21 20 0 514901.0 4117.0
a 21 22 0 514901.0 3771.0
a 21 23 0 769119.0 960.0
a 21 22 0 0.0 0.0
a 21 22 0 0.0 0.0
a 21 23 0 769119.0 955.0
a 21 23 0 0.0 0.0
a 21 23 0 0.0 0.0
a 22 21 0 0.0 0.0
a 22 19 0 0.0 0.0
a 22 20 0 0.0 0.0
a 22 21 0 0.0 0.0
a 22 19 0 0.0 0.0
a 22 19 0 514901.0 3113.0
a 22 19 0 514901.0 2947.0
a 22 20 0 0.0 0.0
a 22 20 0 514901.0 3889.0
a 22 20 0 514901.0 4096.0
a 22 21 0 514901.0 3771.0
a 22 21 0 514901.0 3720.0
a 22 23 0 769119.0 965.0
a 22 27 0 514901.0 107559.0
a 22 23 0 769119.0 963.0
a 22 23 0 0.0 0.0
a 22 23 0 0.0 0.0
a 22 27 0 514901.0 106329.0
a 22 27 0 0.0 0.0
a 22 27 0 0.0 0.0
a 23 19 0 0.0 0.0
a 23 19 0 769119.0 949.0
a 23 20 0 0.0 0.0
a 23 21 0 0.0 0.0
a 23 22 0 0.0 0.0
a 23 19 0 -31265.0 0.0
a 23 19 0 675324.0 949.0
a 23 20 0 0.0 0.0
a 23 20 0 769119.0 965.0
a 23 20 0 769119.0 964.0
a 23 21 0 0.0 0.0
a 23 21 0 769119.0 955.0
a 23 21 0 769119.0 960.0
a 23 22 0 0.0 0.0
a 23 22 0 769119.0 963.0
a 23 22 0 769119.0 965.0
a 24 30 0 514901.0 758666.0
a 24 25 0 514901.0 2767.0
a 24 26 0 769119.0 1043.0
a 24 30 0 514901.0 723211.0
a 24 47 0 514901.0 1856.0
a 24 48 0 514901.0 1955.0
a 24 25 0 514901.0 2686.0
a 24 25 0 0.0 0.0
a 24 25 0 0.0 0.0
a 24 26 0 769119.0 1028.0
a 24 26 0 0.0 0.0
a 24 26 0 0.0 0.0
a 24 30 0 0.0 0.0
a 24 30 0 0.0 0.0
a 24 47 0 514901.0 1823.0
a 24 47 0 0.0 0.0
a 24 47 0 0.0 0.0
a 24 48 0 527407.0 1941.0
a 24 48 0 25012.0 0.0
a 24 48 0 37518.0 0.0
a 25 26 0 769119.0 986.0
a 25 8 0 0.0 0.0
a 25 24 0 0.0 0.0
a 25 8 0 0.0 0.0
a 25 8 0 514901.0 319541.0
a 25 8 0 514901.0 305259.0
a 25 24 0 0.0 0.0
a 25 24 0 514901.0 2686.0
a 25 24 0 514901.0 2767.0
a 25 26 0 769119.0 985.0
a 25 47 0 514901.0 2192.0
a 25 48 0 514901.0 2385.0
a 25 26 0 0.0 0.0
a 25 26 0 0.0 0.0
a 25 47 0 514901.0 2119.0
a 25 47 0 0.0 0.0
a 25 47 0 0.0 0.0
a 25 48 0 514901.0 1837.0
a 25 48 0 0.0 0.0
a 25 48 0 0.0 0.0
a 26 25 0 0.0 0.0
a 26 24 0 0.0 0.0
a 26 25 0 0.0 0.0
a 26 24 0 0.0 0.0
a 26 24 0 769119.0 1028.0
a 26 24 0 769119.0 1043.0
a 26 25 0 769119.0 985.0
a 26 25 0 769119.0 986.0
a 26 47 0 769119.0 980.0
a 26 48 0 769119.0 951.0
a 26 47 0 769119.0 979.0
a 26 47 0 0.0 0.0
a 26 47 0 0.0 0.0
a 26 48 0 769119.0 952.0
a 26 48 0 0.0 0.0
a 26 48 0 0.0 0.0
a 27 3 0 0.0 0.0
a 27 3 0 0.0 0.0
a 27 22 0 0.0 0.0
a 27 3 0 514901.0 157403.0
a 27 3 0 514901.0 157025.0
a 27 22 0 0.0 0.0
a 27 22 0 514901.0 106329.0
a 27 22 0 514901.0 107559.0
a 27 28 0 514901.0 3853.0
a 27 29 0 514901.0 4821.0
a 27 30 0 514901.0 3928.0
a 27 31 0 514901.0 4114.0
a 27 32 0 514901.0 3668.0
a 27 33 0 769119.0 1010.0
a 27 33 0 0.0 0.0
a 27 43 0 514901.0 65526.0
a 27 43 0 0.0 0.0
a 27 28 0 514901.0 4020.0
a 27 28 0 0.0 0.0
a 27 28 0 0.0 0.0
a 27 29 0 514901.0 3579.0
a 27 29 0 0.0 0.0
a 27 29 0 0.0 0.0
a 27 30 0 514901.0 3988.0
a 27 30 0 0.0 0.0
a 27 30 0 0.0 0.0
a 27 31 0 514901.0 4277.0
a 27 31 0 0.0 0.0
a 27 31 0 0.0 0.0
a 27 32 0 514901.0 3787.0
a 27 32 0 0.0 0.0
a 27 32 0 0.0 0.0
a 27 33 0 769119.0 1006.0
a 27 33 0 0.0 0.0
a 27 43 0 514901.0 58195.0
a 27 43 0 0.0 0.0
a 28 10 0 0.0 0.0
a 28 10 0 0.0 0.0
a 28 27 0 0.0 0.0
a 28 10 0 514901.0 158839.0
a 28 10 0 514901.0 147624.0
a 28 27 0 0.0 0.0
a 28 27 0 514901.0 4020.0
a 28 27 0 514901.0 3853.0
a 28 29 0 514901.0 3859.0
a 28 30 0 514901.0 5980.0
a 28 31 0 514901.0 1853.0
a 28 32 0 514901.0 3738.0
a 28 33 0 769119.0 997.0
a 28 37 0 514901.0 25966.0
a 28 46 0 514901.0 16796.0
a 28 29 0 514901.0 3594.0
a 28 29 0 0.0 0.0
a 28 29 0 0.0 0.0
a 28 30 0 514901.0 3875.0
a 28 30 0 0.0 0.0
a 28 30 0 0.0 0.0
a 28 31 0 514901.0 2007.0
a 28 31 0 0.0 0.0
a 28 31 0 0.0 0.0
a 28 32 0 514901.0 3947.0
a 28 32 0 0.0 0.0
a 28 32 0 0.0 0.0
a 28 33 0 769119.0 986.0
a 28 33 0 0.0 0.0
a 28 33 0 0.0 0.0
a 28 37 0 514901.0 24770.0
a 28 37 0 0.0 0.0
a 28 37 0 0.0 0.0
a 28 46 0 514901.0 16808.0
a 28 46 0 0.0 0.0
a 28 46 0 0.0 0.0
a 29 6 0 0.0 0.0
a 29 6 0 0.0 0.0
a 29 27 0 0.0 0.0
a 29 28 0 0.0 0.0
a 29 6 0 514901.0 73000.0
a 29 6 0 514901.0 76085.0
a 29 27 0 0.0 0.0
a 29 27 0 514901.0 3579.0
a 29 27 0 514901.0 4821.0
a 29 28 0 0.0 0.0
a 29 28 0 514901.0 3594.0
a 29 28 0 514901.0 3859.0
a 29 30 0 514901.0 4952.0
a 29 31 0 514901.0 4073.0
a 29 32 0 514901.0 3858.0
a 29 33 0 769119.0 1030.0
a 29 40 0 514901.0 19527.0
a 29 43 0 514901.0 61519.0
a 29 30 0 514901.0 4226.0
a 29 30 0 0.0 0.0
a 29 30 0 0.0 0.0
a 29 31 0 514901.0 3924.0
a 29 31 0 0.0 0.0
a 29 31 0 0.0 0.0
a 29 32 0 514901.0 3872.0
a 29 32 0 0.0 0.0
a 29 32 0 0.0 0.0
a 29 33 0 769119.0 1041.0
a 29 33 0 0.0 0.0
a 29 33 0 0.0 0.0
a 29 40 0 514901.0 21293.0
a 29 40 0 0.0 0.0
a 29 40 0 0.0 0.0
a 29 43 0 514901.0 58643.0
a 29 43 0 0.0 0.0
a 29 43 0 0.0 0.0
a 30 31 0 514901.0 4200.0
a 30 24 0 0.0 0.0
a 30 24 0 0.0 0.0
a 30 27 0 0.0 0.0
a 30 28 0 0.0 0.0
a 30 29 0 0.0 0.0
a 30 24 0 514901.0 723211.0
a 30 24 0 514901.0 758666.0
a 30 27 0 0.0 0.0
a 30 27 0 514901.0 3988.0
a 30 27 0 514901.0 3928.0
a 30 28 0 0.0 0.0
a 30 28 0 514901.0 3875.0
a 30 28 0 514901.0 5980.0
a 30 29 0 0.0 0.0
a 30 29 0 514901.0 4226.0
a 30 29 0 514901.0 4952.0
a 30 31 0 514901.0 4371.0
a 30 32 0 514901.0 3675.0
a 30 33 0 769119.0 1017.0
a 30 44 0 514901.0 51547.0
a 30 31 0 0.0 0.0
a 30 31 0 0.0 0.0
a 30 32 0 514901.0 3622.0
a 30 32 0 0.0 0.0
a 30 32 0 0.0 0.0
a 30 33 0 769119.0 1020.0
a 30 33 0 0.0 0.0
a 30 33 0 0.0 0.0
a 30 44 0 514901.0 51823.0
a 30 44 0 0.0 0.0
a 30 44 0 0.0 0.0
a 31 32 0 514901.0 4228.0
a 31 30 0 0.0 0.0
a 31 11 0 0.0 0.0
a 31 13 0 0.0 0.0
a 31 27 0 0.0 0.0
a 31 28 0 0.0 0.0
a 31 29 0 0.0 0.0
a 31 30 0 0.0 0.0
a 31 11 0 0.0 0.0
a 31 11 0 514901.0 146242.0
a 31 11 0 514901.0 144961.0
a 31 13 0 0.0 0.0
a 31 13 0 514901.0 218568.0
a 31 13 0 514901.0 209814.0
a 31 27 0 0.0 0.0
a 31 27 0 514901.0 4277.0
a 31 27 0 514901.0 4114.0
a 31 28 0 0.0 0.0
a 31 28 0 514901.0 2007.0
a 31 28 0 514901.0 1853.0
a 31 29 0 0.0 0.0
a 31 29 0 514901.0 3924.0
a 31 29 0 514901.0 4073.0
a 31 30 0 514901.0 4371.0
a 31 30 0 514901.0 4200.0
a 31 32 0 514901.0 4255.0
a 31 33 0 769119.0 1076.0
a 31 46 0 514901.0 18632.0
a 31 32 0 0.0 0.0
a 31 32 0 0.0 0.0
a 31 33 0 769119.0 1074.0
a 31 33 0 0.0 0.0
a 31 33 0 0.0 0.0
a 31 46 0 514901.0 21491.0
a 31 46 0 0.0 0.0
a 31 46 0 0.0 0.0
a 32 44 0 514901.0 49115.0
a 32 31 0 0.0 0.0
a 32 2 0 0.0 0.0
a 32 27 0 0.0 0.0
a 32 28 0 0.0 0.0
a 32 29 0 0.0 0.0
a 32 30 0 0.0 0.0
a 32 31 0 0.0 0.0
a 32 2 0 0.0 0.0
a 32 2 0 514901.0 157381.0
a 32 2 0 514901.0 160993.0
a 32 27 0 0.0 0.0
a 32 27 0 514901.0 3787.0
a 32 27 0 514901.0 3668.0
a 32 28 0 0.0 0.0
a 32 28 0 514901.0 3947.0
a 32 28 0 514901.0 3738.0
a 32 29 0 0.0 0.0
a 32 29 0 514901.0 3872.0
a 32 29 0 514901.0 3858.0
a 32 30 0 0.0 0.0
a 32 30 0 514901.0 3622.0
a 32 30 0 514901.0 3675.0
a 32 31 0 514901.0 4255.0
a 32 31 0 514901.0 4228.0
a 32 33 0 769119.0 940.0
a 32 44 0 514901.0 47048.0
a 32 33 0 769119.0 939.0
a 32 33 0 0.0 0.0
a 32 33 0 0.0 0.0
a 32 44 0 0.0 0.0
a 32 44 0 0.0 0.0
a 33 27 0 0.0 0.0
a 33 27 0 769119.0 1006.0
a 33 28 0 0.0 0.0
a 33 29 0 0.0 0.0
a 33 30 0 0.0 0.0
a 33 31 0 0.0 0.0
a 33 32 0 0.0 0.0
a 33 27 0 0.0 0.0
a 33 27 0 769119.0 1010.0
a 33 28 0 0.0 0.0
a 33 28 0 769119.0 986.0
a 33 28 0 769119.0 997.0
a 33 29 0 0.0 0.0
a 33 29 0 769119.0 1041.0
a 33 29 0 769119.0 1030.0
a 33 30 0 0.0 0.0
a 33 30 0 769119.0 1020.0
a 33 30 0 769119.0 1017.0
a 33 31 0 0.0 0.0
a 33 31 0 769119.0 1074.0
a 33 31 0 769119.0 1076.0
a 33 32 0 0.0 0.0
a 33 32 0 769119.0 939.0
a 33 32 0 769119.0 940.0
a 34 35 0 769119.0 4578.0
a 34 17 0 0.0 0.0
a 34 17 0 514901.0 68012.0
a 34 17 0 514901.0 56529.0
a 34 17 0 0.0 0.0
a 34 35 0 769119.0 4637.0
a 34 36 0 769119.0 1139.0
a 34 37 0 514901.0 521537.0
a 34 45 0 514901.0 25459.0
a 34 35 0 0.0 0.0
a 34 35 0 0.0 0.0
a 34 36 0 769119.0 1124.0
a 34 36 0 0.0 0.0
a 34 36 0 0.0 0.0
a 34 37 0 514901.0 504523.0
a 34 37 0 0.0 0.0
a 34 37 0 0.0 0.0
a 34 45 0 514901.0 25516.0
a 34 45 0 0.0 0.0
a 34 45 0 0.0 0.0
a 35 36 0 769119.0 1132.0
a 35 34 0 0.0 0.0
a 35 9 0 0.0 0.0
a 35 13 0 0.0 0.0
a 35 34 0 0.0 0.0
a 35 9 0 0.0 0.0
a 35 9 0 514901.0 144056.0
a 35 9 0 514901.0 140758.0
a 35 13 0 0.0 0.0
a 35 13 0 514901.0 78712.0
a 35 13 0 514901.0 78389.0
a 35 34 0 769119.0 4637.0
a 35 34 0 769119.0 4578.0
a 35 36 0 769119.0 1120.0
a 35 48 0 427359.0 59630.0
a 35 36 0 0.0 0.0
a 35 36 0 0.0 0.0
a 35 48 0 471130.0 59408.0
a 35 48 0 0.0 0.0
a 35 48 0 -131313.0 0.0
a 36 35 0 0.0 0.0
a 36 34 0 0.0 0.0
a 36 35 0 0.0 0.0
a 36 34 0 0.0 0.0
a 36 34 0 769119.0 1124.0
a 36 34 0 769119.0 1139.0
a 36 35 0 769119.0 1120.0
a 36 35 0 769119.0 1132.0
a 37 38 0 514901.0 4401.0
a 37 6 0 0.0 0.0
a 37 28 0 0.0 0.0
a 37 34 0 0.0 0.0
a 37 6 0 0.0 0.0
a 37 6 0 514901.0 51727.0
a 37 6 0 514901.0 48881.0
a 37 28 0 0.0 0.0
a 37 28 0 514901.0 24770.0
a 37 28 0 514901.0 25966.0
a 37 34 0 0.0 0.0
a 37 34 0 514901.0 504523.0
a 37 34 0 514901.0 521537.0
a 37 38 0 514901.0 6768.0
a 37 39 0 514901.0 5292.0
a 37 40 0 514901.0 4346.0
a 37 41 0 769119.0 1086.0
a 37 41 0 0.0 0.0
a 37 46 0 514901.0 7474.0
a 37 38 0 0.0 0.0
a 37 38 0 0.0 0.0
a 37 39 0 514901.0 4727.0
a 37 39 0 0.0 0.0
a 37 39 0 0.0 0.0
a 37 40 0 514901.0 4390.0
a 37 40 0 0.0 0.0
a 37 40 0 0.0 0.0
a 37 41 0 769119.0 1087.0
a 37 41 0 0.0 0.0
a 37 46 0 514901.0 7420.0
a 37 46 0 0.0 0.0
a 37 46 0 0.0 0.0
a 38 39 0 514901.0 4557.0
a 38 37 0 0.0 0.0
a 38 11 0 387686.0 0.0
a 38 13 0 0.0 0.0
a 38 37 0 0.0 0.0
a 38 11 0 193843.0 0.0
a 38 11 0 514901.0 155006.0
a 38 11 0 1096430.0 145309.0
a 38 13 0 0.0 0.0
a 38 13 0 514901.0 276707.0
a 38 13 0 514901.0 296357.0
a 38 37 0 514901.0 6768.0
a 38 37 0 514901.0 4401.0
a 38 39 0 514901.0 4658.0
a 38 40 0 514901.0 4442.0
a 38 41 0 769119.0 1123.0
a 38 43 0 514901.0 50730.0
a 38 46 0 514901.0 7375.0
a 38 39 0 0.0 0.0
a 38 39 0 0.0 0.0
a 38 40 0 514901.0 4400.0
a 38 40 0 0.0 0.0
a 38 40 0 0.0 0.0
a 38 41 0 769119.0 1116.0
a 38 41 0 0.0 0.0
a 38 41 0 0.0 0.0
a 38 43 0 514901.0 52691.0
a 38 43 0 0.0 0.0
a 38 43 0 0.0 0.0
a 38 46 0 514901.0 7961.0
a 38 46 0 0.0 0.0
a 38 46 0 0.0 0.0
a 39 40 0 514901.0 4621.0
a 39 38 0 0.0 0.0
a 39 1 0 0.0 0.0
a 39 16 0 0.0 0.0
a 39 37 0 0.0 0.0
a 39 38 0 0.0 0.0
a 39 1 0 0.0 0.0
a 39 1 0 514901.0 201348.0
a 39 1 0 514901.0 199363.0
a 39 16 0 0.0 0.0
a 39 16 0 514901.0 244419.0
a 39 16 0 514901.0 241771.0
a 39 37 0 0.0 0.0
a 39 37 0 514901.0 4727.0
a 39 37 0 514901.0 5292.0
a 39 38 0 514901.0 4658.0
a 39 38 0 514901.0 4557.0
a 39 40 0 514901.0 5616.0
a 39 41 0 769119.0 1233.0
a 39 44 0 514901.0 61166.0
a 39 40 0 0.0 0.0
a 39 40 0 0.0 0.0
a 39 41 0 769119.0 1234.0
a 39 41 0 0.0 0.0
a 39 41 0 0.0 0.0
a 39 44 0 514901.0 62125.0
a 39 44 0 0.0 0.0
a 39 44 0 0.0 0.0
a 40 46 0 514901.0 7433.0
a 40 39 0 0.0 0.0
a 40 19 0 0.0 0.0
a 40 29 0 0.0 0.0
a 40 37 0 0.0 0.0
a 40 38 0 0.0 0.0
a 40 39 0 0.0 0.0
a 40 19 0 0.0 0.0
a 40 19 0 514901.0 93176.0
a 40 19 0 514901.0 91760.0
a 40 29 0 0.0 0.0
a 40 29 0 514901.0 21293.0
a 40 29 0 514901.0 19527.0
a 40 37 0 0.0 0.0
a 40 37 0 514901.0 4390.0
a 40 37 0 514901.0 4346.0
a 40 38 0 0.0 0.0
a 40 38 0 514901.0 4400.0
a 40 38 0 514901.0 4442.0
a 40 39 0 514901.0 5616.0
a 40 39 0 514901.0 4621.0
a 40 41 0 769119.0 1090.0
a 40 46 0 514901.0 7506.0
a 40 41 0 769119.0 1084.0
a 40 41 0 0.0 0.0
a 40 41 0 0.0 0.0
a 40 46 0 0.0 0.0
a 40 46 0 0.0 0.0
a 41 37 0 0.0 0.0
a 41 37 0 769119.0 1087.0
a 41 38 0 0.0 0.0
a 41 39 0 0.0 0.0
a 41 40 0 0.0 0.0
a 41 37 0 0.0 0.0
a 41 37 0 769119.0 1086.0
a 41 38 0 0.0 0.0
a 41 38 0 769119.0 1116.0
a 41 38 0 769119.0 1123.0
a 41 39 0 0.0 0.0
a 41 39 0 769119.0 1234.0
a 41 39 0 769119.0 1233.0
a 41 40 0 0.0 0.0
a 41 40 0 769119.0 1084.0
a 41 40 0 769119.0 1090.0
a 42 0 0 0.0 0.0
a 42 0 0 514901.0 95362.0
a 42 14 0 0.0 0.0
a 42 0 0 0.0 0.0
a 42 0 0 514901.0 96211.0
a 42 14 0 0.0 0.0
a 42 14 0 514901.0 55791.0
a 42 14 0 514901.0 54125.0
a 43 27 0 0.0 0.0
a 43 27 0 514901.0 58195.0
a 43 29 0 0.0 0.0
a 43 38 0 0.0 0.0
a 43 27 0 0.0 0.0
a 43 27 0 514901.0 65526.0
a 43 29 0 0.0 0.0
a 43 29 0 514901.0 58643.0
a 43 29 0 514901.0 61519.0
a 43 38 0 0.0 0.0
a 43 38 0 514901.0 52691.0
a 43 38 0 514901.0 50730.0
a 44 32 0 0.0 0.0
a 44 30 0 0.0 0.0
a 44 32 0 0.0 0.0
a 44 39 0 0.0 0.0
a 44 30 0 0.0 0.0
a 44 30 0 514901.0 51823.0
a 44 30 0 514901.0 51547.0
a 44 32 0 514901.0 47048.0
a 44 32 0 514901.0 49115.0
a 44 39 0 0.0 0.0
a 44 39 0 514901.0 62125.0
a 44 39 0 514901.0 61166.0
a 45 17 0 0.0 0.0
a 45 17 0 0.0 0.0
a 45 34 0 0.0 0.0
a 45 17 0 514901.0 90938.0
a 45 17 0 514901.0 105285.0
a 45 34 0 0.0 0.0
a 45 34 0 514901.0 25516.0
a 45 34 0 514901.0 25459.0
a 46 40 0 0.0 0.0
a 46 28 0 0.0 0.0
a 46 31 0 0.0 0.0
a 46 37 0 0.0 0.0
a 46 38 0 0.0 0.0
a 46 40 0 0.0 0.0
a 46 28 0 0.0 0.0
a 46 28 0 514901.0 16808.0
a 46 28 0 514901.0 16796.0
a 46 31 0 0.0 0.0
a 46 31 0 514901.0 21491.0
a 46 31 0 514901.0 18632.0
a 46 37 0 0.0 0.0
a 46 37 0 514901.0 7420.0
a 46 37 0 514901.0 7474.0
a 46 38 0 0.0 0.0
a 46 38 0 514901.0 7961.0
a 46 38 0 514901.0 7375.0
a 46 40 0 514901.0 7506.0
a 46 40 0 514901.0 7433.0
a 47 48 0 514901.0 1800.0
a 47 14 0 0.0 0.0
a 47 24 0 0.0 0.0
a 47 25 0 0.0 0.0
a 47 26 0 0.0 0.0
a 47 14 0 0.0 0.0
a 47 14 0 514901.0 171772.0
a 47 14 0 514901.0 161765.0
a 47 24 0 0.0 0.0
a 47 24 0 514901.0 1823.0
a 47 24 0 514901.0 1856.0
a 47 25 0 0.0 0.0
a 47 25 0 514901.0 2119.0
a 47 25 0 514901.0 2192.0
a 47 26 0 0.0 0.0
a 47 26 0 769119.0 979.0
a 47 26 0 769119.0 980.0
a 47 48 0 514901.0 1808.0
a 47 48 0 0.0 0.0
a 47 48 0 0.0 0.0
a 48 47 0 0.0 0.0
a 48 24 0 0.0 0.0
a 48 25 0 0.0 0.0
a 48 26 0 0.0 0.0
a 48 35 0 87542.0 0.0
a 48 47 0 0.0 0.0
a 48 24 0 -12506.0 0.0
a 48 24 0 489889.0 1941.0
a 48 24 0 477383.0 1955.0
a 48 25 0 0.0 0.0
a 48 25 0 514901.0 1837.0
a 48 25 0 514901.0 2385.0
a 48 26 0 0.0 0.0
a 48 26 0 769119.0 952.0
a 48 26 0 769119.0 951.0
a 48 35 0 43771.0 0.0
a 48 35 0 514901.0 59408.0
a 48 35 0 646214.0 59630.0
a 48 47 0 514901.0 1808.0
a 48 47 0 514901.0 1800.0
